p cnf 200 1110
-101 7 0
-101 66 0
-101 -75 0
-101 92 0
-101 -10 0
-101 9 0
-101 -79 0
-101 -2 0
-101 -8 0
-101 86 0
101 -7 -66 75 -92 10 -9 79 2 8 -86 0
-102 17 0
-102 12 0
-102 -73 0
-102 51 0
-102 9 0
-102 -41 0
-102 50 0
-102 8 0
-102 26 0
-102 -38 0
102 -17 -12 73 -51 -9 41 -50 -8 -26 38 0
-103 -92 0
-103 53 0
-103 49 0
-103 78 0
-103 -43 0
-103 74 0
-103 84 0
-103 -54 0
-103 96 0
-103 -25 0
103 92 -53 -49 -78 43 -74 -84 54 -96 25 0
-104 21 0
-104 -18 0
-104 15 0
-104 -24 0
-104 27 0
-104 -57 0
-104 66 0
-104 34 0
-104 -47 0
-104 -89 0
104 -21 18 -15 24 -27 57 -66 -34 47 89 0
-105 67 0
-105 -2 0
-105 -56 0
-105 20 0
-105 -8 0
-105 4 0
-105 -81 0
-105 51 0
-105 -34 0
-105 -77 0
105 -67 2 56 -20 8 -4 81 -51 34 77 0
-106 -63 0
-106 -90 0
-106 -26 0
-106 -82 0
-106 -20 0
-106 -66 0
-106 70 0
-106 -41 0
-106 -69 0
-106 -46 0
106 63 90 26 82 20 66 -70 41 69 46 0
-107 2 0
-107 94 0
-107 -80 0
-107 -6 0
-107 -19 0
-107 91 0
-107 49 0
-107 -18 0
-107 -89 0
-107 -84 0
107 -2 -94 80 6 19 -91 -49 18 89 84 0
-108 -65 0
-108 -58 0
-108 62 0
-108 3 0
-108 18 0
-108 -51 0
-108 92 0
-108 -17 0
-108 -4 0
-108 -93 0
108 65 58 -62 -3 -18 51 -92 17 4 93 0
-109 54 0
-109 62 0
-109 82 0
-109 -23 0
-109 7 0
-109 57 0
-109 53 0
-109 -69 0
-109 41 0
-109 -21 0
109 -54 -62 -82 23 -7 -57 -53 69 -41 21 0
-110 99 0
-110 88 0
-110 51 0
-110 -4 0
-110 -57 0
-110 -81 0
-110 32 0
-110 67 0
-110 86 0
-110 73 0
110 -99 -88 -51 4 57 81 -32 -67 -86 -73 0
101 102 103 104 105 106 107 108 109 110 0
-111 53 0
-111 -96 0
-111 45 0
-111 -38 0
-111 -78 0
-111 18 0
-111 -35 0
-111 2 0
-111 43 0
-111 27 0
111 -53 96 -45 38 78 -18 35 -2 -43 -27 0
-112 93 0
-112 -61 0
-112 -7 0
-112 54 0
-112 12 0
-112 -8 0
-112 -44 0
-112 70 0
-112 -51 0
-112 84 0
112 -93 61 7 -54 -12 8 44 -70 51 -84 0
-113 97 0
-113 -7 0
-113 41 0
-113 36 0
-113 57 0
-113 22 0
-113 2 0
-113 47 0
-113 -14 0
-113 84 0
113 -97 7 -41 -36 -57 -22 -2 -47 14 -84 0
-114 74 0
-114 29 0
-114 -3 0
-114 48 0
-114 -57 0
-114 26 0
-114 -42 0
-114 -36 0
-114 -41 0
-114 83 0
114 -74 -29 3 -48 57 -26 42 36 41 -83 0
-115 58 0
-115 -55 0
-115 66 0
-115 -99 0
-115 -33 0
-115 -37 0
-115 -36 0
-115 -94 0
-115 90 0
-115 -52 0
115 -58 55 -66 99 33 37 36 94 -90 52 0
-116 -59 0
-116 -100 0
-116 -79 0
-116 -5 0
-116 -86 0
-116 -30 0
-116 -44 0
-116 41 0
-116 20 0
-116 -4 0
116 59 100 79 5 86 30 44 -41 -20 4 0
-117 98 0
-117 84 0
-117 18 0
-117 -57 0
-117 41 0
-117 -100 0
-117 -14 0
-117 -86 0
-117 -26 0
-117 -58 0
117 -98 -84 -18 57 -41 100 14 86 26 58 0
-118 -13 0
-118 -87 0
-118 29 0
-118 88 0
-118 -21 0
-118 63 0
-118 -79 0
-118 89 0
-118 71 0
-118 59 0
118 13 87 -29 -88 21 -63 79 -89 -71 -59 0
-119 96 0
-119 8 0
-119 38 0
-119 -71 0
-119 18 0
-119 48 0
-119 1 0
-119 76 0
-119 -47 0
-119 -100 0
119 -96 -8 -38 71 -18 -48 -1 -76 47 100 0
-120 77 0
-120 40 0
-120 -95 0
-120 36 0
-120 27 0
-120 4 0
-120 -59 0
-120 50 0
-120 74 0
-120 -21 0
120 -77 -40 95 -36 -27 -4 59 -50 -74 21 0
111 112 113 114 115 116 117 118 119 120 0
-121 -11 0
-121 -14 0
-121 21 0
-121 -85 0
-121 -77 0
-121 93 0
-121 -39 0
-121 61 0
-121 -62 0
-121 17 0
121 11 14 -21 85 77 -93 39 -61 62 -17 0
-122 8 0
-122 97 0
-122 -56 0
-122 -88 0
-122 -61 0
-122 -71 0
-122 86 0
-122 -47 0
-122 -32 0
-122 -26 0
122 -8 -97 56 88 61 71 -86 47 32 26 0
-123 -25 0
-123 -10 0
-123 -83 0
-123 -56 0
-123 95 0
-123 24 0
-123 -20 0
-123 70 0
-123 -38 0
-123 65 0
123 25 10 83 56 -95 -24 20 -70 38 -65 0
-124 43 0
-124 28 0
-124 -8 0
-124 49 0
-124 55 0
-124 -14 0
-124 -70 0
-124 -31 0
-124 -100 0
-124 -79 0
124 -43 -28 8 -49 -55 14 70 31 100 79 0
-125 -16 0
-125 -83 0
-125 -26 0
-125 -57 0
-125 -30 0
-125 79 0
-125 56 0
-125 38 0
-125 -13 0
-125 -62 0
125 16 83 26 57 30 -79 -56 -38 13 62 0
-126 -21 0
-126 -40 0
-126 10 0
-126 -7 0
-126 -62 0
-126 94 0
-126 6 0
-126 -95 0
-126 65 0
-126 -4 0
126 21 40 -10 7 62 -94 -6 95 -65 4 0
-127 40 0
-127 90 0
-127 71 0
-127 -30 0
-127 22 0
-127 69 0
-127 -82 0
-127 74 0
-127 59 0
-127 15 0
127 -40 -90 -71 30 -22 -69 82 -74 -59 -15 0
-128 24 0
-128 96 0
-128 1 0
-128 -38 0
-128 -70 0
-128 36 0
-128 72 0
-128 6 0
-128 93 0
-128 -84 0
128 -24 -96 -1 38 70 -36 -72 -6 -93 84 0
-129 41 0
-129 -95 0
-129 -32 0
-129 17 0
-129 63 0
-129 25 0
-129 -83 0
-129 59 0
-129 -37 0
-129 94 0
129 -41 95 32 -17 -63 -25 83 -59 37 -94 0
-130 -40 0
-130 61 0
-130 -14 0
-130 48 0
-130 -29 0
-130 20 0
-130 91 0
-130 78 0
-130 -92 0
-130 -76 0
130 40 -61 14 -48 29 -20 -91 -78 92 76 0
121 122 123 124 125 126 127 128 129 130 0
-131 80 0
-131 97 0
-131 -1 0
-131 -96 0
-131 -29 0
-131 89 0
-131 -4 0
-131 47 0
-131 45 0
-131 -49 0
131 -80 -97 1 96 29 -89 4 -47 -45 49 0
-132 71 0
-132 47 0
-132 93 0
-132 -89 0
-132 -75 0
-132 55 0
-132 -58 0
-132 -5 0
-132 50 0
-132 32 0
132 -71 -47 -93 89 75 -55 58 5 -50 -32 0
-133 56 0
-133 -51 0
-133 -6 0
-133 -83 0
-133 -3 0
-133 25 0
-133 -95 0
-133 -90 0
-133 72 0
-133 -29 0
133 -56 51 6 83 3 -25 95 90 -72 29 0
-134 -33 0
-134 58 0
-134 36 0
-134 67 0
-134 -15 0
-134 87 0
-134 12 0
-134 -5 0
-134 -9 0
-134 -86 0
134 33 -58 -36 -67 15 -87 -12 5 9 86 0
-135 86 0
-135 47 0
-135 -62 0
-135 74 0
-135 -78 0
-135 31 0
-135 90 0
-135 32 0
-135 98 0
-135 69 0
135 -86 -47 62 -74 78 -31 -90 -32 -98 -69 0
-136 -41 0
-136 59 0
-136 -84 0
-136 7 0
-136 -49 0
-136 15 0
-136 -12 0
-136 -70 0
-136 99 0
-136 93 0
136 41 -59 84 -7 49 -15 12 70 -99 -93 0
-137 -23 0
-137 47 0
-137 75 0
-137 -37 0
-137 -100 0
-137 62 0
-137 -19 0
-137 30 0
-137 -2 0
-137 82 0
137 23 -47 -75 37 100 -62 19 -30 2 -82 0
-138 11 0
-138 -61 0
-138 52 0
-138 27 0
-138 -19 0
-138 17 0
-138 75 0
-138 -25 0
-138 -67 0
-138 -76 0
138 -11 61 -52 -27 19 -17 -75 25 67 76 0
-139 95 0
-139 3 0
-139 -78 0
-139 84 0
-139 -61 0
-139 -13 0
-139 87 0
-139 15 0
-139 46 0
-139 -60 0
139 -95 -3 78 -84 61 13 -87 -15 -46 60 0
-140 70 0
-140 -99 0
-140 66 0
-140 -78 0
-140 71 0
-140 42 0
-140 -5 0
-140 15 0
-140 -33 0
-140 -11 0
140 -70 99 -66 78 -71 -42 5 -15 33 11 0
131 132 133 134 135 136 137 138 139 140 0
-141 -52 0
-141 36 0
-141 -86 0
-141 -19 0
-141 -94 0
-141 78 0
-141 -5 0
-141 48 0
-141 12 0
-141 -26 0
141 52 -36 86 19 94 -78 5 -48 -12 26 0
-142 49 0
-142 48 0
-142 53 0
-142 -82 0
-142 75 0
-142 -9 0
-142 14 0
-142 94 0
-142 -1 0
-142 -21 0
142 -49 -48 -53 82 -75 9 -14 -94 1 21 0
-143 -92 0
-143 -44 0
-143 28 0
-143 98 0
-143 -24 0
-143 -80 0
-143 47 0
-143 -51 0
-143 -66 0
-143 -56 0
143 92 44 -28 -98 24 80 -47 51 66 56 0
-144 -25 0
-144 78 0
-144 26 0
-144 84 0
-144 -14 0
-144 59 0
-144 -13 0
-144 38 0
-144 31 0
-144 55 0
144 25 -78 -26 -84 14 -59 13 -38 -31 -55 0
-145 -40 0
-145 23 0
-145 32 0
-145 57 0
-145 82 0
-145 68 0
-145 28 0
-145 -38 0
-145 -58 0
-145 66 0
145 40 -23 -32 -57 -82 -68 -28 38 58 -66 0
-146 -65 0
-146 30 0
-146 -43 0
-146 46 0
-146 35 0
-146 13 0
-146 74 0
-146 -33 0
-146 73 0
-146 2 0
146 65 -30 43 -46 -35 -13 -74 33 -73 -2 0
-147 75 0
-147 -81 0
-147 -12 0
-147 -38 0
-147 28 0
-147 -5 0
-147 37 0
-147 2 0
-147 -59 0
-147 -68 0
147 -75 81 12 38 -28 5 -37 -2 59 68 0
-148 74 0
-148 52 0
-148 -96 0
-148 -85 0
-148 -46 0
-148 50 0
-148 44 0
-148 32 0
-148 64 0
-148 71 0
148 -74 -52 96 85 46 -50 -44 -32 -64 -71 0
-149 -38 0
-149 60 0
-149 -71 0
-149 87 0
-149 78 0
-149 70 0
-149 96 0
-149 -46 0
-149 -72 0
-149 28 0
149 38 -60 71 -87 -78 -70 -96 46 72 -28 0
-150 -78 0
-150 57 0
-150 61 0
-150 27 0
-150 -16 0
-150 -98 0
-150 18 0
-150 51 0
-150 -50 0
-150 -48 0
150 78 -57 -61 -27 16 98 -18 -51 50 48 0
141 142 143 144 145 146 147 148 149 150 0
-151 31 0
-151 -13 0
-151 -55 0
-151 -75 0
-151 92 0
-151 -28 0
-151 18 0
-151 97 0
-151 2 0
-151 -74 0
151 -31 13 55 75 -92 28 -18 -97 -2 74 0
-152 93 0
-152 -25 0
-152 -91 0
-152 90 0
-152 -81 0
-152 -56 0
-152 66 0
-152 -47 0
-152 -41 0
-152 -49 0
152 -93 25 91 -90 81 56 -66 47 41 49 0
-153 16 0
-153 -13 0
-153 -20 0
-153 39 0
-153 -29 0
-153 21 0
-153 -15 0
-153 30 0
-153 59 0
-153 8 0
153 -16 13 20 -39 29 -21 15 -30 -59 -8 0
-154 -75 0
-154 -42 0
-154 -53 0
-154 52 0
-154 67 0
-154 -24 0
-154 8 0
-154 -97 0
-154 96 0
-154 17 0
154 75 42 53 -52 -67 24 -8 97 -96 -17 0
-155 -61 0
-155 82 0
-155 -78 0
-155 -6 0
-155 -45 0
-155 89 0
-155 -85 0
-155 -34 0
-155 -8 0
-155 65 0
155 61 -82 78 6 45 -89 85 34 8 -65 0
-156 97 0
-156 -37 0
-156 -26 0
-156 23 0
-156 -89 0
-156 77 0
-156 -32 0
-156 -7 0
-156 -76 0
-156 -35 0
156 -97 37 26 -23 89 -77 32 7 76 35 0
-157 51 0
-157 48 0
-157 -15 0
-157 -78 0
-157 31 0
-157 73 0
-157 -28 0
-157 27 0
-157 -36 0
-157 -92 0
157 -51 -48 15 78 -31 -73 28 -27 36 92 0
-158 16 0
-158 -45 0
-158 44 0
-158 67 0
-158 -5 0
-158 -42 0
-158 87 0
-158 69 0
-158 96 0
-158 -72 0
158 -16 45 -44 -67 5 42 -87 -69 -96 72 0
-159 38 0
-159 -40 0
-159 -76 0
-159 25 0
-159 -4 0
-159 -54 0
-159 -96 0
-159 -62 0
-159 11 0
-159 -63 0
159 -38 40 76 -25 4 54 96 62 -11 63 0
-160 77 0
-160 -11 0
-160 -95 0
-160 -64 0
-160 68 0
-160 -89 0
-160 -17 0
-160 -55 0
-160 52 0
-160 50 0
160 -77 11 95 64 -68 89 17 55 -52 -50 0
151 152 153 154 155 156 157 158 159 160 0
-161 -49 0
-161 95 0
-161 84 0
-161 39 0
-161 69 0
-161 43 0
-161 59 0
-161 46 0
-161 -23 0
-161 -34 0
161 49 -95 -84 -39 -69 -43 -59 -46 23 34 0
-162 -81 0
-162 5 0
-162 -67 0
-162 60 0
-162 -97 0
-162 -96 0
-162 -7 0
-162 33 0
-162 -78 0
-162 82 0
162 81 -5 67 -60 97 96 7 -33 78 -82 0
-163 45 0
-163 72 0
-163 -44 0
-163 -61 0
-163 -68 0
-163 -1 0
-163 -71 0
-163 -20 0
-163 60 0
-163 10 0
163 -45 -72 44 61 68 1 71 20 -60 -10 0
-164 90 0
-164 -54 0
-164 -36 0
-164 -78 0
-164 -72 0
-164 73 0
-164 -38 0
-164 -76 0
-164 42 0
-164 -15 0
164 -90 54 36 78 72 -73 38 76 -42 15 0
-165 31 0
-165 97 0
-165 -42 0
-165 39 0
-165 38 0
-165 49 0
-165 -77 0
-165 58 0
-165 -12 0
-165 1 0
165 -31 -97 42 -39 -38 -49 77 -58 12 -1 0
-166 42 0
-166 66 0
-166 31 0
-166 56 0
-166 68 0
-166 -86 0
-166 -2 0
-166 -48 0
-166 -63 0
-166 11 0
166 -42 -66 -31 -56 -68 86 2 48 63 -11 0
-167 -6 0
-167 -25 0
-167 -31 0
-167 16 0
-167 48 0
-167 87 0
-167 99 0
-167 90 0
-167 47 0
-167 -86 0
167 6 25 31 -16 -48 -87 -99 -90 -47 86 0
-168 -91 0
-168 -24 0
-168 70 0
-168 8 0
-168 94 0
-168 -32 0
-168 -56 0
-168 -27 0
-168 28 0
-168 40 0
168 91 24 -70 -8 -94 32 56 27 -28 -40 0
-169 -30 0
-169 18 0
-169 -8 0
-169 1 0
-169 76 0
-169 -96 0
-169 -58 0
-169 -66 0
-169 87 0
-169 -57 0
169 30 -18 8 -1 -76 96 58 66 -87 57 0
-170 45 0
-170 -93 0
-170 -88 0
-170 -70 0
-170 75 0
-170 33 0
-170 11 0
-170 -20 0
-170 36 0
-170 14 0
170 -45 93 88 70 -75 -33 -11 20 -36 -14 0
161 162 163 164 165 166 167 168 169 170 0
-171 98 0
-171 63 0
-171 -76 0
-171 85 0
-171 8 0
-171 89 0
-171 74 0
-171 37 0
-171 59 0
-171 -27 0
171 -98 -63 76 -85 -8 -89 -74 -37 -59 27 0
-172 82 0
-172 -89 0
-172 73 0
-172 -18 0
-172 62 0
-172 -67 0
-172 -69 0
-172 32 0
-172 -95 0
-172 -6 0
172 -82 89 -73 18 -62 67 69 -32 95 6 0
-173 -17 0
-173 48 0
-173 -83 0
-173 22 0
-173 -88 0
-173 34 0
-173 -47 0
-173 40 0
-173 25 0
-173 85 0
173 17 -48 83 -22 88 -34 47 -40 -25 -85 0
-174 17 0
-174 -55 0
-174 33 0
-174 47 0
-174 66 0
-174 -63 0
-174 -28 0
-174 8 0
-174 -89 0
-174 -9 0
174 -17 55 -33 -47 -66 63 28 -8 89 9 0
-175 -8 0
-175 35 0
-175 -94 0
-175 16 0
-175 -95 0
-175 -87 0
-175 67 0
-175 37 0
-175 -85 0
-175 -34 0
175 8 -35 94 -16 95 87 -67 -37 85 34 0
-176 -82 0
-176 -35 0
-176 71 0
-176 -36 0
-176 48 0
-176 32 0
-176 -73 0
-176 65 0
-176 -19 0
-176 -77 0
176 82 35 -71 36 -48 -32 73 -65 19 77 0
-177 -44 0
-177 46 0
-177 65 0
-177 -18 0
-177 29 0
-177 60 0
-177 -70 0
-177 -43 0
-177 27 0
-177 -69 0
177 44 -46 -65 18 -29 -60 70 43 -27 69 0
-178 25 0
-178 67 0
-178 -84 0
-178 24 0
-178 -95 0
-178 -37 0
-178 49 0
-178 -9 0
-178 -78 0
-178 -57 0
178 -25 -67 84 -24 95 37 -49 9 78 57 0
-179 -48 0
-179 -25 0
-179 -63 0
-179 -19 0
-179 -5 0
-179 -2 0
-179 -24 0
-179 -96 0
-179 54 0
-179 8 0
179 48 25 63 19 5 2 24 96 -54 -8 0
-180 78 0
-180 90 0
-180 20 0
-180 -29 0
-180 -19 0
-180 -80 0
-180 16 0
-180 -22 0
-180 96 0
-180 -7 0
180 -78 -90 -20 29 19 80 -16 22 -96 7 0
171 172 173 174 175 176 177 178 179 180 0
-181 -95 0
-181 -41 0
-181 -33 0
-181 9 0
-181 -35 0
-181 -11 0
-181 -2 0
-181 50 0
-181 -79 0
-181 -7 0
181 95 41 33 -9 35 11 2 -50 79 7 0
-182 -17 0
-182 9 0
-182 -25 0
-182 -83 0
-182 18 0
-182 -72 0
-182 44 0
-182 -74 0
-182 -45 0
-182 -1 0
182 17 -9 25 83 -18 72 -44 74 45 1 0
-183 -38 0
-183 -80 0
-183 56 0
-183 79 0
-183 -58 0
-183 -88 0
-183 100 0
-183 27 0
-183 -59 0
-183 -24 0
183 38 80 -56 -79 58 88 -100 -27 59 24 0
-184 -20 0
-184 -44 0
-184 -15 0
-184 -48 0
-184 -12 0
-184 -71 0
-184 32 0
-184 -80 0
-184 62 0
-184 99 0
184 20 44 15 48 12 71 -32 80 -62 -99 0
-185 54 0
-185 64 0
-185 56 0
-185 49 0
-185 10 0
-185 86 0
-185 79 0
-185 -52 0
-185 -68 0
-185 -16 0
185 -54 -64 -56 -49 -10 -86 -79 52 68 16 0
-186 -93 0
-186 87 0
-186 41 0
-186 17 0
-186 64 0
-186 -13 0
-186 -97 0
-186 -88 0
-186 -12 0
-186 75 0
186 93 -87 -41 -17 -64 13 97 88 12 -75 0
-187 98 0
-187 -25 0
-187 -56 0
-187 -2 0
-187 -95 0
-187 -45 0
-187 -89 0
-187 32 0
-187 -33 0
-187 -1 0
187 -98 25 56 2 95 45 89 -32 33 1 0
-188 -53 0
-188 -55 0
-188 45 0
-188 15 0
-188 9 0
-188 41 0
-188 75 0
-188 -23 0
-188 -59 0
-188 60 0
188 53 55 -45 -15 -9 -41 -75 23 59 -60 0
-189 -100 0
-189 7 0
-189 71 0
-189 55 0
-189 -92 0
-189 -19 0
-189 89 0
-189 3 0
-189 -48 0
-189 81 0
189 100 -7 -71 -55 92 19 -89 -3 48 -81 0
-190 14 0
-190 -27 0
-190 -49 0
-190 82 0
-190 -38 0
-190 31 0
-190 19 0
-190 63 0
-190 -52 0
-190 -60 0
190 -14 27 49 -82 38 -31 -19 -63 52 60 0
181 182 183 184 185 186 187 188 189 190 0
-191 32 0
-191 87 0
-191 43 0
-191 91 0
-191 50 0
-191 -46 0
-191 -13 0
-191 39 0
-191 34 0
-191 -27 0
191 -32 -87 -43 -91 -50 46 13 -39 -34 27 0
-192 -59 0
-192 -54 0
-192 12 0
-192 92 0
-192 84 0
-192 61 0
-192 -18 0
-192 -2 0
-192 -73 0
-192 -44 0
192 59 54 -12 -92 -84 -61 18 2 73 44 0
-193 -39 0
-193 -26 0
-193 -59 0
-193 -90 0
-193 -66 0
-193 45 0
-193 -11 0
-193 72 0
-193 52 0
-193 -20 0
193 39 26 59 90 66 -45 11 -72 -52 20 0
-194 92 0
-194 -51 0
-194 -100 0
-194 -97 0
-194 71 0
-194 -68 0
-194 14 0
-194 -19 0
-194 -54 0
-194 6 0
194 -92 51 100 97 -71 68 -14 19 54 -6 0
-195 7 0
-195 -25 0
-195 -1 0
-195 12 0
-195 -54 0
-195 -23 0
-195 20 0
-195 15 0
-195 -42 0
-195 26 0
195 -7 25 1 -12 54 23 -20 -15 42 -26 0
-196 -30 0
-196 93 0
-196 21 0
-196 -16 0
-196 -39 0
-196 35 0
-196 -71 0
-196 17 0
-196 58 0
-196 -54 0
196 30 -93 -21 16 39 -35 71 -17 -58 54 0
-197 68 0
-197 -75 0
-197 99 0
-197 -29 0
-197 97 0
-197 -43 0
-197 -42 0
-197 45 0
-197 -78 0
-197 69 0
197 -68 75 -99 29 -97 43 42 -45 78 -69 0
-198 -69 0
-198 -81 0
-198 -36 0
-198 -3 0
-198 -34 0
-198 -73 0
-198 -5 0
-198 -14 0
-198 -66 0
-198 15 0
198 69 81 36 3 34 73 5 14 66 -15 0
-199 -79 0
-199 71 0
-199 -46 0
-199 -76 0
-199 12 0
-199 -23 0
-199 -21 0
-199 -59 0
-199 100 0
-199 -27 0
199 79 -71 46 76 -12 23 21 59 -100 27 0
-200 15 0
-200 94 0
-200 -52 0
-200 79 0
-200 -8 0
-200 83 0
-200 -29 0
-200 99 0
-200 -19 0
-200 40 0
200 -15 -94 52 -79 8 -83 29 -99 19 -40 0
191 192 193 194 195 196 197 198 199 200 0
